p cnf 173 438
a 19 21 2 4 10 12 30 33 45 53 60 62 132 143 151 167 1 9 18 29 38 44 51 59 0
d 89 1 9 0
d 100 38 44 0
d 96 18 29 0
d 122 51 59 0
d 3 2 0
d 5 4 0
d 6 2 4 0
d 7 1 2 4 0
d 8 1 2 4 0
d 11 10 0
d 13 12 0
d 14 10 12 0
d 15 9 10 12 0
d 16 9 10 12 0
d 17 1 2 4 9 10 12 0
d 20 19 0
d 22 21 0
d 23 19 21 0
d 24 19 21 2 0
d 25 19 21 2 4 0
d 26 18 19 21 2 4 0
d 27 18 19 21 2 4 0
d 28 1 2 4 9 10 12 18 19 21 0
d 31 30 0
d 32 10 12 30 0
d 34 10 12 30 33 0
d 35 29 10 12 30 33 0
d 36 29 10 12 30 33 0
d 37 1 2 4 9 10 12 18 19 21 29 30 33 0
d 39 33 0
d 40 30 33 0
d 41 38 30 33 0
d 42 38 30 33 0
d 43 1 2 4 9 10 12 18 19 21 29 30 33 38 0
d 46 45 19 0
d 47 45 19 21 0
d 48 44 45 19 21 0
d 49 44 45 19 21 0
d 50 1 2 4 9 10 12 18 19 21 29 30 33 38 44 45 0
d 52 45 0
d 54 53 0
d 55 45 53 0
d 56 51 45 53 0
d 57 51 45 53 0
d 58 1 2 4 9 10 12 18 19 21 29 30 33 38 44 45 51 53 0
d 61 60 0
d 63 60 62 0
d 64 59 60 62 0
d 65 59 60 62 0
d 66 1 2 4 9 10 12 18 19 21 29 30 33 38 44 45 51 53 59 60 62 0
d 67 19 0
d 68 19 21 0
d 69 19 21 0
d 70 19 21 0
d 71 2 19 0
d 72 2 19 21 0
d 73 2 19 21 0
d 74 19 21 2 0
d 75 19 21 2 4 0
d 76 19 21 2 4 0
d 77 19 21 2 4 0
d 78 10 19 0
d 79 10 19 21 0
d 80 2 4 10 19 21 0
d 81 2 4 10 19 21 0
d 82 19 21 2 4 10 0
d 83 10 12 0
d 84 10 12 19 21 2 4 0
d 85 10 12 19 21 2 4 0
d 86 19 21 2 4 10 12 0
d 87 30 19 0
d 88 30 19 21 0
d 90 30 19 21 1 9 0
d 91 2 4 10 0
d 92 2 4 10 12 0
d 93 30 19 21 2 4 10 12 0
d 94 30 19 21 1 9 2 4 10 12 0
d 95 19 21 2 4 10 12 30 1 9 0
d 97 19 21 2 4 10 12 30 33 0
d 98 18 29 19 21 2 4 10 12 30 33 0
d 99 19 21 2 4 10 12 30 1 9 18 29 33 0
d 101 1 9 38 44 0
d 102 30 33 45 19 21 0
d 103 2 4 10 12 30 33 45 19 21 0
d 104 1 9 38 44 2 4 10 12 30 33 45 19 21 0
d 105 19 21 2 4 10 12 30 1 9 18 29 33 38 44 45 0
d 106 10 12 30 33 0
d 107 45 53 0
d 108 45 53 19 21 2 4 0
d 109 10 12 30 33 45 53 19 21 2 4 0
d 110 10 12 30 33 45 53 19 21 2 4 0
d 111 19 21 2 4 10 12 30 1 9 18 29 33 38 44 45 53 0
d 112 30 33 45 0
d 113 30 33 45 53 0
d 114 60 19 0
d 115 60 19 21 0
d 116 60 19 21 1 9 0
d 117 30 33 45 53 60 19 21 1 9 0
d 118 60 19 21 2 4 10 12 0
d 119 30 33 45 53 60 19 21 2 4 10 12 0
d 120 30 33 45 53 60 19 21 1 9 2 4 10 12 0
d 121 19 21 2 4 10 12 30 1 9 18 29 33 38 44 45 53 60 0
d 123 19 21 2 4 10 12 30 33 0
d 124 51 59 19 21 2 4 10 12 30 33 0
d 125 45 53 60 0
d 126 45 53 60 62 0
d 127 45 53 60 62 19 21 2 4 10 12 30 33 0
d 128 51 59 19 21 2 4 10 12 30 33 45 53 60 62 0
d 129 19 21 2 4 10 12 30 1 9 18 29 33 38 44 45 53 60 51 59 62 0
d 130 62 0
d 131 60 62 0
d 133 132 19 0
d 134 132 19 21 0
d 135 60 62 132 19 21 0
d 136 1 9 30 33 45 53 0
d 137 60 62 132 19 21 1 9 30 33 45 53 0
d 138 2 4 10 12 30 33 45 53 0
d 139 60 62 132 19 21 2 4 10 12 30 33 45 53 0
d 140 60 62 132 19 21 1 9 30 33 45 53 2 4 10 12 0
d 141 19 21 2 4 10 12 30 1 9 18 29 33 38 44 45 53 60 51 59 62 132 0
d 142 132 0
d 144 132 143 0
d 145 132 143 19 21 2 4 0
d 146 45 53 60 62 0
d 147 10 12 30 33 45 53 60 62 0
d 148 132 143 19 21 2 4 10 12 30 33 45 53 60 62 0
d 149 132 143 19 21 2 4 10 12 30 33 45 53 60 62 0
d 150 19 21 2 4 10 12 30 1 9 18 29 33 38 44 45 53 60 51 59 62 132 143 0
d 152 151 19 0
d 153 151 19 21 0
d 154 151 19 21 1 9 0
d 155 60 62 132 0
d 156 143 0
d 157 60 62 132 143 0
d 158 30 33 45 53 60 62 132 143 0
d 159 151 19 21 1 9 30 33 45 53 60 62 132 143 0
d 160 151 19 21 2 4 10 12 0
d 161 151 19 21 2 4 10 12 30 33 45 53 60 62 132 143 0
d 162 151 19 21 1 9 30 33 45 53 60 62 132 143 2 4 10 12 0
d 163 19 21 2 4 10 12 30 1 9 18 29 33 38 44 45 53 60 51 59 62 132 143 151 0
d 164 132 143 0
d 165 151 0
d 166 132 143 151 0
d 168 132 143 151 167 0
d 169 45 53 60 62 132 143 151 167 0
d 170 19 21 2 4 10 12 30 33 45 53 60 62 132 143 151 167 0
d 171 19 21 2 4 10 12 30 33 45 53 60 62 132 143 151 167 0
d 172 19 21 2 4 10 12 30 1 9 18 29 33 38 44 45 53 60 51 59 62 132 143 151 167 0
d 173 1 2 4 9 10 12 18 19 21 29 30 33 38 44 45 51 53 59 60 62 132 143 151 167 0
3 2 0
-3 -2 0
5 4 0
-5 -4 0
-6 3 0
-6 5 0
6 -3 -5 0
7 -1 -6 0
7 1 6 0
-7 -1 6 0
-7 1 -6 0
8 7 0
-8 -7 0
11 10 0
-11 -10 0
13 12 0
-13 -12 0
-14 11 0
-14 13 0
14 -11 -13 0
15 -9 -14 0
15 9 14 0
-15 -9 14 0
-15 9 -14 0
16 15 0
-16 -15 0
17 -8 0
17 -16 0
-17 8 16 0
20 19 0
-20 -19 0
22 21 0
-22 -21 0
-23 20 0
-23 22 0
23 -20 -22 0
-24 23 0
-24 3 0
24 -23 -3 0
-25 24 0
-25 5 0
25 -24 -5 0
26 -18 -25 0
26 18 25 0
-26 -18 25 0
-26 18 -25 0
27 26 0
-27 -26 0
28 -17 0
28 -27 0
-28 17 27 0
31 30 0
-31 -30 0
-32 14 0
-32 31 0
32 -14 -31 0
-34 32 0
-34 33 0
34 -32 -33 0
35 -29 -34 0
35 29 34 0
-35 -29 34 0
-35 29 -34 0
36 35 0
-36 -35 0
37 -28 0
37 -36 0
-37 28 36 0
39 33 0
-39 -33 0
-40 31 0
-40 39 0
40 -31 -39 0
41 -38 -40 0
41 38 40 0
-41 -38 40 0
-41 38 -40 0
42 41 0
-42 -41 0
43 -37 0
43 -42 0
-43 37 42 0
-46 45 0
-46 20 0
46 -45 -20 0
-47 46 0
-47 22 0
47 -46 -22 0
48 -44 -47 0
48 44 47 0
-48 -44 47 0
-48 44 -47 0
49 48 0
-49 -48 0
50 -43 0
50 -49 0
-50 43 49 0
52 45 0
-52 -45 0
54 53 0
-54 -53 0
-55 52 0
-55 54 0
55 -52 -54 0
56 -51 -55 0
56 51 55 0
-56 -51 55 0
-56 51 -55 0
57 56 0
-57 -56 0
58 -50 0
58 -57 0
-58 50 57 0
61 60 0
-61 -60 0
-63 61 0
-63 62 0
63 -61 -62 0
64 -59 -63 0
64 59 63 0
-64 -59 63 0
-64 59 -63 0
65 64 0
-65 -64 0
66 -58 0
66 -65 0
-66 58 65 0
67 -19 -19 0
67 19 19 0
-67 -19 19 0
-67 19 -19 0
-68 20 0
-68 21 0
68 -20 -21 0
69 -68 -68 0
69 68 68 0
-69 -68 68 0
-69 68 -68 0
-70 67 0
-70 69 0
70 -67 -69 0
-71 2 0
-71 20 0
71 -2 -20 0
-72 71 0
-72 22 0
72 -71 -22 0
73 -72 -72 0
73 72 72 0
-73 -72 72 0
-73 72 -72 0
-74 70 0
-74 73 0
74 -70 -73 0
-75 24 0
-75 4 0
75 -24 -4 0
76 -75 -75 0
76 75 75 0
-76 -75 75 0
-76 75 -75 0
-77 74 0
-77 76 0
77 -74 -76 0
-78 10 0
-78 20 0
78 -10 -20 0
-79 78 0
-79 22 0
79 -78 -22 0
-80 6 0
-80 79 0
80 -6 -79 0
81 -80 -80 0
81 80 80 0
-81 -80 80 0
-81 80 -80 0
-82 77 0
-82 81 0
82 -77 -81 0
-83 11 0
-83 12 0
83 -11 -12 0
-84 83 0
-84 25 0
84 -83 -25 0
85 -84 -84 0
85 84 84 0
-85 -84 84 0
-85 84 -84 0
-86 82 0
-86 85 0
86 -82 -85 0
-87 30 0
-87 20 0
87 -30 -20 0
-88 87 0
-88 22 0
88 -87 -22 0
-90 88 0
-90 89 0
90 -88 -89 0
-91 6 0
-91 11 0
91 -6 -11 0
-92 91 0
-92 13 0
92 -91 -13 0
-93 88 0
-93 92 0
93 -88 -92 0
94 -90 -93 0
94 90 93 0
-94 -90 93 0
-94 90 -93 0
-95 86 0
-95 94 0
95 -86 -94 0
-97 25 0
-97 34 0
97 -25 -34 0
98 -96 -97 0
98 96 97 0
-98 -96 97 0
-98 96 -97 0
-99 95 0
-99 98 0
99 -95 -98 0
-101 89 0
-101 100 0
101 -89 -100 0
-102 40 0
-102 47 0
102 -40 -47 0
-103 92 0
-103 102 0
103 -92 -102 0
104 -101 -103 0
104 101 103 0
-104 -101 103 0
-104 101 -103 0
-105 99 0
-105 104 0
105 -99 -104 0
-106 32 0
-106 39 0
106 -32 -39 0
-107 52 0
-107 53 0
107 -52 -53 0
-108 107 0
-108 25 0
108 -107 -25 0
-109 106 0
-109 108 0
109 -106 -108 0
110 -109 -109 0
110 109 109 0
-110 -109 109 0
-110 109 -109 0
-111 105 0
-111 110 0
111 -105 -110 0
-112 40 0
-112 52 0
112 -40 -52 0
-113 112 0
-113 54 0
113 -112 -54 0
-114 60 0
-114 20 0
114 -60 -20 0
-115 114 0
-115 22 0
115 -114 -22 0
-116 115 0
-116 89 0
116 -115 -89 0
-117 113 0
-117 116 0
117 -113 -116 0
-118 115 0
-118 92 0
118 -115 -92 0
-119 113 0
-119 118 0
119 -113 -118 0
120 -117 -119 0
120 117 119 0
-120 -117 119 0
-120 117 -119 0
-121 111 0
-121 120 0
121 -111 -120 0
-123 25 0
-123 106 0
123 -25 -106 0
124 -122 -123 0
124 122 123 0
-124 -122 123 0
-124 122 -123 0
-125 55 0
-125 61 0
125 -55 -61 0
-126 125 0
-126 62 0
126 -125 -62 0
-127 126 0
-127 123 0
127 -126 -123 0
128 -124 -127 0
128 124 127 0
-128 -124 127 0
-128 124 -127 0
-129 121 0
-129 128 0
129 -121 -128 0
130 62 0
-130 -62 0
-131 61 0
-131 130 0
131 -61 -130 0
-133 132 0
-133 20 0
133 -132 -20 0
-134 133 0
-134 22 0
134 -133 -22 0
-135 131 0
-135 134 0
135 -131 -134 0
-136 89 0
-136 113 0
136 -89 -113 0
-137 135 0
-137 136 0
137 -135 -136 0
-138 92 0
-138 113 0
138 -92 -113 0
-139 135 0
-139 138 0
139 -135 -138 0
140 -137 -139 0
140 137 139 0
-140 -137 139 0
-140 137 -139 0
-141 129 0
-141 140 0
141 -129 -140 0
142 132 0
-142 -132 0
-144 142 0
-144 143 0
144 -142 -143 0
-145 144 0
-145 25 0
145 -144 -25 0
-146 125 0
-146 130 0
146 -125 -130 0
-147 106 0
-147 146 0
147 -106 -146 0
-148 145 0
-148 147 0
148 -145 -147 0
149 -148 -148 0
149 148 148 0
-149 -148 148 0
-149 148 -148 0
-150 141 0
-150 149 0
150 -141 -149 0
-152 151 0
-152 20 0
152 -151 -20 0
-153 152 0
-153 22 0
153 -152 -22 0
-154 153 0
-154 89 0
154 -153 -89 0
-155 131 0
-155 142 0
155 -131 -142 0
156 143 0
-156 -143 0
-157 155 0
-157 156 0
157 -155 -156 0
-158 113 0
-158 157 0
158 -113 -157 0
-159 154 0
-159 158 0
159 -154 -158 0
-160 153 0
-160 92 0
160 -153 -92 0
-161 160 0
-161 158 0
161 -160 -158 0
162 -159 -161 0
162 159 161 0
-162 -159 161 0
-162 159 -161 0
-163 150 0
-163 162 0
163 -150 -162 0
-164 142 0
-164 156 0
164 -142 -156 0
165 151 0
-165 -151 0
-166 164 0
-166 165 0
166 -164 -165 0
-168 166 0
-168 167 0
168 -166 -167 0
-169 146 0
-169 168 0
169 -146 -168 0
-170 123 0
-170 169 0
170 -123 -169 0
171 -170 -170 0
171 170 170 0
-171 -170 170 0
-171 170 -170 0
-172 163 0
-172 171 0
172 -163 -171 0
173 -66 0
173 -172 0
-173 66 172 0
173 0
